k = 26;
b = 6;
AtomicConstraints =  [|
1, 3|
	1, 5|
	1, 13|
	1, 17|
	1, 18|
	2, 3|
	2, 4|
	2, 5|
	2, 6|
	2, 13|
	2, 14|
	2, 17|
	2, 18|
	3, 5|
	3, 13|
	3, 17|
	3, 18|
	4, 5|
	4, 6|
	4, 13|
	4, 14|
	4, 17|
	4, 18|
	5, 13|
	5, 17|
	5, 18|
	6, 13|
	6, 14|
	6, 17|
	6, 18|
	15, 17|
	15, 18|
	15, 23|
	15, 7|
	15, 24|
	15, 25|
	15, 12|
	15, 26|
	8, 14|
	8, 17|
	8, 18|
	8, 23|
	8, 7|
	8, 24|
	8, 25|
	8, 12|
	8, 26|
	16, 14|
	16, 17|
	16, 18|
	16, 7|
	16, 24|
	16, 12|
	16, 26|
	17, 21|
	17, 11|
	17, 22|
	17, 23|
	17, 25|
	17, 12|
	17, 26|
	9, 21|
	9, 11|
	9, 22|
	9, 23|
	9, 7|
	9, 25|
	9, 12|
	9, 26|
	18, 11|
	18, 22|
	18, 23|
	18, 7|
	18, 24|
	18, 25|
	18, 12|
	18, 26|
	21, 25|
	11, 25|
	11, 12|
	22, 25|
	22, 12|
	22, 26|
	23, 25|
	23, 12|
	23, 26|
	7, 25|
	7, 12|
	7, 26|
	24, 12|
	24, 26|];
DisjunctiveConstraints =  [|8, 15, 8, 16|
	8, 7, 8, 1|
	16, 12, 6, 16|
	9, 17, 9, 18|
	18, 11, 5, 18|
	10, 19, 10, 20|
	11, 21, 11, 22|
	7, 23, 7, 24|
	12, 25, 12, 26|];
SoftAtomicConstraints =  [|
2, 1|
4, 3|
6, 5|
23, 7|
15, 8|
17, 9|
19, 10|
21, 11|
25, 12|
14, 13|
8, 16|
9, 18|
10, 20|
11, 22|
7, 24|
12, 26|];
DirectSuccessors =  [1,
2,
8,
7];
